p cnf 1086 2382             
-2 -1 -86 0
86 -92 0
-1 87 0
-2 87 0
1 2 -87 0
-87 -3 -88 0
88 -92 0
-3 89 0
-87 89 0
3 87 -89 0
-89 -4 -90 0
90 -92 0
4 89 -91 0
91 -92 0
-6 -5 -93 0
93 -99 0
-5 94 0
-6 94 0
5 6 -94 0
-94 -7 -95 0
95 -99 0
-7 96 0
-94 96 0
7 94 -96 0
-96 -8 -97 0
97 -99 0
8 96 -98 0
98 -99 0
-10 -9 -100 0
100 -106 0
-9 101 0
-10 101 0
9 10 -101 0
-101 -11 -102 0
102 -106 0
-11 103 0
-101 103 0
11 101 -103 0
-103 -12 -104 0
104 -106 0
12 103 -105 0
105 -106 0
-14 -13 -107 0
107 -113 0
-13 108 0
-14 108 0
13 14 -108 0
-108 -15 -109 0
109 -113 0
-15 110 0
-108 110 0
15 108 -110 0
-110 -16 -111 0
111 -113 0
16 110 -112 0
112 -113 0
-18 -17 -114 0
114 -128 0
-17 115 0
-18 115 0
17 18 -115 0
-115 -19 -116 0
116 -128 0
-19 117 0
-115 117 0
19 115 -117 0
-117 -20 -118 0
118 -128 0
-20 119 0
-117 119 0
20 117 -119 0
-119 -21 -120 0
120 -128 0
-21 121 0
-119 121 0
21 119 -121 0
-121 -22 -122 0
122 -128 0
-22 123 0
-121 123 0
22 121 -123 0
-123 -23 -124 0
124 -128 0
-23 125 0
-123 125 0
23 123 -125 0
-125 -24 -126 0
126 -128 0
24 125 -127 0
127 -128 0
-26 -25 -129 0
129 -143 0
-25 130 0
-26 130 0
25 26 -130 0
-130 -27 -131 0
131 -143 0
-27 132 0
-130 132 0
27 130 -132 0
-132 -28 -133 0
133 -143 0
-28 134 0
-132 134 0
28 132 -134 0
-134 -29 -135 0
135 -143 0
-29 136 0
-134 136 0
29 134 -136 0
-136 -30 -137 0
137 -143 0
-30 138 0
-136 138 0
30 136 -138 0
-138 -31 -139 0
139 -143 0
-31 140 0
-138 140 0
31 138 -140 0
-140 -32 -141 0
141 -143 0
32 140 -142 0
142 -143 0
-34 -33 -144 0
144 -158 0
-33 145 0
-34 145 0
33 34 -145 0
-145 -35 -146 0
146 -158 0
-35 147 0
-145 147 0
35 145 -147 0
-147 -36 -148 0
148 -158 0
-36 149 0
-147 149 0
36 147 -149 0
-149 -37 -150 0
150 -158 0
-37 151 0
-149 151 0
37 149 -151 0
-151 -38 -152 0
152 -158 0
-38 153 0
-151 153 0
38 151 -153 0
-153 -39 -154 0
154 -158 0
-39 155 0
-153 155 0
39 153 -155 0
-155 -40 -156 0
156 -158 0
40 155 -157 0
157 -158 0
-42 -41 -159 0
159 -173 0
-41 160 0
-42 160 0
41 42 -160 0
-160 -43 -161 0
161 -173 0
-43 162 0
-160 162 0
43 160 -162 0
-162 -44 -163 0
163 -173 0
-44 164 0
-162 164 0
44 162 -164 0
-164 -45 -165 0
165 -173 0
-45 166 0
-164 166 0
45 164 -166 0
-166 -46 -167 0
167 -173 0
-46 168 0
-166 168 0
46 166 -168 0
-168 -47 -169 0
169 -173 0
-47 170 0
-168 170 0
47 168 -170 0
-170 -48 -171 0
171 -173 0
48 170 -172 0
172 -173 0
-50 -49 -174 0
174 -188 0
-49 175 0
-50 175 0
49 50 -175 0
-175 -51 -176 0
176 -188 0
-51 177 0
-175 177 0
51 175 -177 0
-177 -52 -178 0
178 -188 0
-52 179 0
-177 179 0
52 177 -179 0
-179 -53 -180 0
180 -188 0
-53 181 0
-179 181 0
53 179 -181 0
-181 -54 -182 0
182 -188 0
-54 183 0
-181 183 0
54 181 -183 0
-183 -55 -184 0
184 -188 0
-55 185 0
-183 185 0
55 183 -185 0
-185 -56 -186 0
186 -188 0
56 185 -187 0
187 -188 0
18 -196 0
20 -196 0
-18 -20 196 0
-19 -20 -191 0
19 20 -191 0
-20 20 -191 0
-19 20 191 0
19 -20 191 0
20 -20 191 0
-196 -191 -197 0
196 191 -197 0
-191 191 -197 0
-196 191 197 0
196 -191 197 0
191 -191 197 0
197 -216 0
22 -207 0
24 -207 0
-22 -24 207 0
-23 -24 -204 0
23 24 -204 0
-24 24 -204 0
-23 24 204 0
23 -24 204 0
24 -24 204 0
-207 -204 -208 0
207 204 -208 0
-204 204 -208 0
-207 204 208 0
207 -204 208 0
204 -204 208 0
208 -216 0
-197 -208 216 0
-216 218 0
-18 -20 -195 0
18 20 -195 0
-20 20 -195 0
-18 20 195 0
18 -20 195 0
20 -20 195 0
195 -213 0
-22 -24 -206 0
22 24 -206 0
-24 24 -206 0
-22 24 206 0
22 -24 206 0
24 -24 206 0
206 -213 0
-195 -206 213 0
213 -217 0
-197 -208 -214 0
197 208 -214 0
-208 208 -214 0
-197 208 214 0
197 -208 214 0
208 -208 214 0
214 -217 0
-213 -214 217 0
-217 218 0
216 217 -218 0
191 -198 0
196 -198 0
-191 -196 198 0
-17 -18 -189 0
17 18 -189 0
-18 18 -189 0
-17 18 189 0
17 -18 189 0
18 -18 189 0
19 -192 0
20 -192 0
-19 -20 192 0
-192 -191 -193 0
192 191 -193 0
-191 191 -193 0
-192 191 193 0
192 -191 193 0
191 -191 193 0
-189 -193 -199 0
189 193 -199 0
-193 193 -199 0
-189 193 199 0
189 -193 199 0
193 -193 199 0
-198 -199 -200 0
198 199 -200 0
-199 199 -200 0
-198 199 200 0
198 -199 200 0
199 -199 200 0
204 -209 0
207 -209 0
-204 -207 209 0
23 -205 0
24 -205 0
-23 -24 205 0
-209 -205 -210 0
209 205 -210 0
-205 205 -210 0
-209 205 210 0
209 -205 210 0
205 -205 210 0
-200 -210 -219 0
200 210 -219 0
-210 210 -219 0
-200 210 219 0
200 -210 219 0
210 -210 219 0
-218 219 220 0
218 -219 220 0
219 -219 220 0
-220 -224 0
-213 214 215 0
213 -214 215 0
214 -214 215 0
-215 -224 0
-195 206 212 0
195 -206 212 0
206 -206 212 0
-212 -224 0
57 -1085 0
-59 -58 -225 0
225 -231 0
-58 226 0
-59 226 0
58 59 -226 0
-226 -60 -227 0
227 -231 0
-60 228 0
-226 228 0
60 226 -228 0
-228 -61 -229 0
229 -231 0
61 228 -230 0
230 -231 0
231 -1084 0
-63 -62 -232 0
232 -246 0
-62 233 0
-63 233 0
62 63 -233 0
-233 -64 -234 0
234 -246 0
-64 235 0
-233 235 0
64 233 -235 0
-235 -65 -236 0
236 -246 0
-65 237 0
-235 237 0
65 235 -237 0
-237 -66 -238 0
238 -246 0
-66 239 0
-237 239 0
66 237 -239 0
-239 -67 -240 0
240 -246 0
-67 241 0
-239 241 0
67 239 -241 0
-241 -68 -242 0
242 -246 0
-68 243 0
-241 243 0
68 241 -243 0
-243 -69 -244 0
244 -246 0
69 243 -245 0
245 -246 0
246 -1084 0
-71 -70 -247 0
247 -253 0
-70 248 0
-71 248 0
70 71 -248 0
-248 -72 -249 0
249 -253 0
-72 250 0
-248 250 0
72 248 -250 0
-250 -73 -251 0
251 -253 0
73 250 -252 0
252 -253 0
253 -268 0
-75 -74 -254 0
254 -260 0
-74 255 0
-75 255 0
74 75 -255 0
-255 -76 -256 0
256 -260 0
-76 257 0
-255 257 0
76 255 -257 0
-257 -77 -258 0
258 -260 0
77 257 -259 0
259 -260 0
260 -268 0
-79 -78 -261 0
261 -267 0
-78 262 0
-79 262 0
78 79 -262 0
-262 -80 -263 0
263 -267 0
-80 264 0
-262 264 0
80 262 -264 0
-264 -81 -265 0
265 -267 0
81 264 -266 0
266 -267 0
267 -268 0
268 -1084 0
-73 -270 0
-61 -269 0
-60 -269 0
269 -270 0
270 -396 0
60 -377 0
-75 317 0
71 -283 0
75 -283 0
-71 -75 283 0
-283 306 0
75 -286 0
76 -286 0
-75 -76 286 0
-286 306 0
77 -289 0
79 -289 0
-77 -79 289 0
-289 306 0
283 286 289 -306 0
-306 317 0
75 306 -317 0
-317 368 0
-71 302 0
72 -275 0
75 -275 0
-72 -75 275 0
-275 302 0
73 -279 0
79 -279 0
-73 -79 279 0
-279 302 0
71 275 279 -302 0
302 -334 0
317 -334 0
-302 -317 334 0
-334 357 0
-76 307 0
-275 307 0
77 -290 0
80 -290 0
-77 -80 290 0
-290 307 0
76 275 290 -307 0
307 -337 0
317 -337 0
-307 -317 337 0
-337 357 0
-77 318 0
73 -284 0
75 -284 0
-73 -75 284 0
-284 308 0
76 -287 0
77 -287 0
-76 -77 287 0
-287 308 0
77 -291 0
81 -291 0
-77 -81 291 0
-291 308 0
284 287 291 -308 0
-308 318 0
77 308 -318 0
318 -340 0
-79 320 0
71 -293 0
79 -293 0
-71 -79 293 0
-293 310 0
75 -296 0
80 -296 0
-75 -80 296 0
-296 310 0
79 -299 0
81 -299 0
-79 -81 299 0
-299 310 0
293 296 299 -310 0
-310 320 0
79 310 -320 0
320 -340 0
-318 -320 340 0
-340 357 0
334 337 340 -357 0
-357 368 0
317 357 -368 0
368 -377 0
61 -380 0
-320 371 0
302 -344 0
320 -344 0
-302 -320 344 0
-344 361 0
317 -347 0
-80 321 0
72 -294 0
79 -294 0
-72 -79 294 0
-294 311 0
76 -297 0
80 -297 0
-76 -80 297 0
-297 311 0
80 -300 0
81 -300 0
-80 -81 300 0
-300 311 0
294 297 300 -311 0
-311 321 0
80 311 -321 0
321 -347 0
-317 -321 347 0
-347 361 0
-81 312 0
-279 312 0
-290 312 0
81 279 290 -312 0
312 -350 0
320 -350 0
-312 -320 350 0
-350 361 0
344 347 350 -361 0
-361 371 0
320 361 -371 0
371 -380 0
59 377 380 -383 0
70 -387 0
-73 -386 0
-72 -386 0
-71 -386 0
386 -387 0
383 387 -388 0
388 -395 0
59 -374 0
-72 314 0
71 -272 0
72 -272 0
-71 -72 272 0
-272 303 0
72 -276 0
76 -276 0
-72 -76 276 0
-276 303 0
73 -280 0
80 -280 0
-73 -80 280 0
-280 303 0
272 276 280 -303 0
-303 314 0
72 303 -314 0
-314 365 0
302 -323 0
314 -323 0
-302 -314 323 0
-323 354 0
307 -327 0
314 -327 0
-307 -314 327 0
-327 354 0
-73 315 0
71 -273 0
73 -273 0
-71 -73 273 0
-273 304 0
72 -277 0
77 -277 0
-72 -77 277 0
-277 304 0
73 -281 0
81 -281 0
-73 -81 281 0
-281 304 0
273 277 281 -304 0
-304 315 0
73 304 -315 0
315 -331 0
321 -331 0
-315 -321 331 0
-331 354 0
323 327 331 -354 0
-354 365 0
314 354 -365 0
365 -374 0
61 -381 0
-321 372 0
314 -345 0
320 -345 0
-314 -320 345 0
-345 362 0
307 -348 0
321 -348 0
-307 -321 348 0
-348 362 0
312 -351 0
321 -351 0
-312 -321 351 0
-351 362 0
345 348 351 -362 0
-362 372 0
321 362 -372 0
372 -381 0
60 374 381 -384 0
74 -390 0
-77 -389 0
-76 -389 0
-75 -389 0
389 -390 0
384 390 -391 0
391 -395 0
59 -375 0
-315 366 0
302 -324 0
315 -324 0
-302 -315 324 0
-324 355 0
314 -328 0
318 -328 0
-314 -318 328 0
-328 355 0
312 -332 0
315 -332 0
-312 -315 332 0
-332 355 0
324 328 332 -355 0
-355 366 0
315 355 -366 0
366 -375 0
60 -378 0
-318 369 0
315 -335 0
317 -335 0
-315 -317 335 0
-335 359 0
307 -338 0
318 -338 0
-307 -318 338 0
-338 359 0
312 -342 0
318 -342 0
-312 -318 342 0
-342 359 0
335 338 342 -359 0
-359 369 0
318 359 -369 0
369 -378 0
61 375 378 -385 0
78 -393 0
-81 -392 0
-80 -392 0
-79 -392 0
392 -393 0
385 393 -394 0
394 -395 0
395 -396 0
396 -424 0
73 72 70 414 0
-71 -414 415 0
57 -398 0
59 -398 0
-57 -59 398 0
-398 411 0
57 -399 0
60 -399 0
-57 -60 399 0
-368 -399 405 0
-405 411 0
57 -400 0
61 -400 0
-57 -61 400 0
-371 -400 408 0
-408 411 0
-415 -411 -416 0
416 -423 0
77 75 74 417 0
-76 -417 418 0
-399 412 0
-365 -398 402 0
-402 412 0
-372 -400 409 0
-409 412 0
-418 -412 -419 0
419 -423 0
80 79 78 420 0
-81 -420 421 0
-400 413 0
-366 -398 403 0
-403 413 0
-369 -399 406 0
-406 413 0
-421 -413 -422 0
422 -423 0
423 -424 0
424 -1083 0
-83 -82 -425 0
425 -427 0
82 83 -426 0
426 -427 0
427 -431 0
-85 -84 -428 0
428 -430 0
84 85 -429 0
429 -430 0
430 -431 0
431 -1082 0
-84 -513 0
85 -513 0
513 -1079 0
57 -432 0
62 -432 0
-57 -62 432 0
-25 432 -440 0
440 -448 0
57 -433 0
63 -433 0
-57 -63 433 0
-26 433 -441 0
441 -448 0
57 -434 0
64 -434 0
-57 -64 434 0
-27 434 -442 0
442 -448 0
57 -435 0
65 -435 0
-57 -65 435 0
-28 435 -443 0
443 -448 0
57 -436 0
66 -436 0
-57 -66 436 0
-29 436 -444 0
444 -448 0
57 -437 0
67 -437 0
-57 -67 437 0
-30 437 -445 0
445 -448 0
57 -438 0
68 -438 0
-57 -68 438 0
-31 438 -446 0
446 -448 0
57 -439 0
69 -439 0
-57 -69 439 0
-32 439 -447 0
447 -448 0
448 -458 0
-432 25 -449 0
449 -457 0
-433 26 -450 0
450 -457 0
-434 27 -451 0
451 -457 0
-435 28 -452 0
452 -457 0
-436 29 -453 0
453 -457 0
-437 30 -454 0
454 -457 0
-438 31 -455 0
455 -457 0
-439 32 -456 0
456 -457 0
457 -458 0
458 -470 0
57 -397 0
58 -397 0
-57 -58 397 0
-1 397 -459 0
459 -463 0
-2 398 -460 0
460 -463 0
-3 399 -461 0
461 -463 0
-4 400 -462 0
462 -463 0
463 -469 0
-397 1 -464 0
464 -468 0
-398 2 -465 0
465 -468 0
-399 3 -466 0
466 -468 0
-400 4 -467 0
467 -468 0
468 -469 0
469 -470 0
470 -1078 0
-433 -435 -477 0
433 435 -477 0
-435 435 -477 0
-433 435 477 0
433 -435 477 0
435 -435 477 0
477 -495 0
-437 -439 -488 0
437 439 -488 0
-439 439 -488 0
-437 439 488 0
437 -439 488 0
439 -439 488 0
488 -495 0
-477 -488 495 0
433 -478 0
435 -478 0
-433 -435 478 0
-434 -435 -473 0
434 435 -473 0
-435 435 -473 0
-434 435 473 0
434 -435 473 0
435 -435 473 0
-478 -473 -479 0
478 473 -479 0
-473 473 -479 0
-478 473 479 0
478 -473 479 0
473 -473 479 0
437 -489 0
439 -489 0
-437 -439 489 0
-438 -439 -486 0
438 439 -486 0
-439 439 -486 0
-438 439 486 0
438 -439 486 0
439 -439 486 0
-489 -486 -490 0
489 486 -490 0
-486 486 -490 0
-489 486 490 0
489 -486 490 0
486 -486 490 0
-479 -490 -496 0
479 490 -496 0
-490 490 -496 0
-479 490 496 0
479 -490 496 0
490 -490 496 0
-495 -496 -497 0
495 496 -497 0
-496 496 -497 0
-495 496 497 0
495 -496 497 0
496 -496 497 0
497 506 0
479 -498 0
490 -498 0
-479 -490 498 0
-498 500 0
495 -499 0
496 -499 0
-495 -496 499 0
-499 500 0
498 499 -500 0
473 -480 0
478 -480 0
-473 -478 480 0
-432 -433 -471 0
432 433 -471 0
-433 433 -471 0
-432 433 471 0
432 -433 471 0
433 -433 471 0
434 -474 0
435 -474 0
-434 -435 474 0
-474 -473 -475 0
474 473 -475 0
-473 473 -475 0
-474 473 475 0
474 -473 475 0
473 -473 475 0
-471 -475 -481 0
471 475 -481 0
-475 475 -481 0
-471 475 481 0
471 -475 481 0
475 -475 481 0
-480 -481 -482 0
480 481 -482 0
-481 481 -482 0
-480 481 482 0
480 -481 482 0
481 -481 482 0
486 -491 0
489 -491 0
-486 -489 491 0
438 -487 0
439 -487 0
-438 -439 487 0
-491 -487 -492 0
491 487 -492 0
-487 487 -492 0
-491 487 492 0
491 -487 492 0
487 -487 492 0
-482 -492 -501 0
482 492 -501 0
-492 492 -501 0
-482 492 501 0
482 -492 501 0
492 -492 501 0
-500 -501 -502 0
500 501 -502 0
-501 501 -502 0
-500 501 502 0
500 -501 502 0
501 -501 502 0
-502 506 0
-497 502 -506 0
506 -510 0
-502 -507 0
-497 -507 0
502 497 507 0
507 508 0
-477 -488 -494 0
477 488 -494 0
-488 488 -494 0
-477 488 494 0
477 -488 494 0
488 -488 494 0
494 508 0
-507 -494 -508 0
508 -510 0
-506 -508 510 0
510 -512 0
-494 511 0
-497 511 0
-502 511 0
494 497 502 -511 0
511 -512 0
-510 -511 512 0
512 -558 0
513 -545 0
-5 1 -514 0
514 -518 0
-6 2 -515 0
515 -518 0
-7 3 -516 0
516 -518 0
-8 4 -517 0
517 -518 0
518 -524 0
-1 5 -519 0
519 -523 0
-2 6 -520 0
520 -523 0
-3 7 -521 0
521 -523 0
-4 8 -522 0
522 -523 0
523 -524 0
524 -544 0
-25 41 -525 0
525 -533 0
-26 42 -526 0
526 -533 0
-27 43 -527 0
527 -533 0
-28 44 -528 0
528 -533 0
-29 45 -529 0
529 -533 0
-30 46 -530 0
530 -533 0
-31 47 -531 0
531 -533 0
-32 48 -532 0
532 -533 0
533 -543 0
-41 25 -534 0
534 -542 0
-42 26 -535 0
535 -542 0
-43 27 -536 0
536 -542 0
-44 28 -537 0
537 -542 0
-45 29 -538 0
538 -542 0
-46 30 -539 0
539 -542 0
-47 31 -540 0
540 -542 0
-48 32 -541 0
541 -542 0
542 -543 0
543 -544 0
544 -545 0
545 -557 0
-9 1 -546 0
546 -550 0
-10 2 -547 0
547 -550 0
-11 3 -548 0
548 -550 0
-12 4 -549 0
549 -550 0
550 -556 0
-1 9 -551 0
551 -555 0
-2 10 -552 0
552 -555 0
-3 11 -553 0
553 -555 0
-4 12 -554 0
554 -555 0
555 -556 0
556 -557 0
557 -558 0
558 -610 0
-1 13 -559 0
559 -563 0
-2 14 -560 0
560 -563 0
-3 15 -561 0
561 -563 0
-4 16 -562 0
562 -563 0
563 -569 0
-13 1 -564 0
564 -568 0
-14 2 -565 0
565 -568 0
-15 3 -566 0
566 -568 0
-16 4 -567 0
567 -568 0
568 -569 0
569 -589 0
-25 49 -570 0
570 -578 0
-26 50 -571 0
571 -578 0
-27 51 -572 0
572 -578 0
-28 52 -573 0
573 -578 0
-29 53 -574 0
574 -578 0
-30 54 -575 0
575 -578 0
-31 55 -576 0
576 -578 0
-32 56 -577 0
577 -578 0
578 -588 0
-49 25 -579 0
579 -587 0
-50 26 -580 0
580 -587 0
-51 27 -581 0
581 -587 0
-52 28 -582 0
582 -587 0
-53 29 -583 0
583 -587 0
-54 30 -584 0
584 -587 0
-55 31 -585 0
585 -587 0
-56 32 -586 0
586 -587 0
587 -588 0
588 -589 0
589 -609 0
-25 33 -590 0
590 -598 0
-26 34 -591 0
591 -598 0
-27 35 -592 0
592 -598 0
-28 36 -593 0
593 -598 0
-29 37 -594 0
594 -598 0
-30 38 -595 0
595 -598 0
-31 39 -596 0
596 -598 0
-32 40 -597 0
597 -598 0
598 -608 0
-33 25 -599 0
599 -607 0
-34 26 -600 0
600 -607 0
-35 27 -601 0
601 -607 0
-36 28 -602 0
602 -607 0
-37 29 -603 0
603 -607 0
-38 30 -604 0
604 -607 0
-39 31 -605 0
605 -607 0
-40 32 -606 0
606 -607 0
607 -608 0
608 -609 0
609 -610 0
13 -1064 0
-16 -1063 0
-15 -1063 0
-14 -1063 0
16 15 14 1063 0
1063 -1064 0
-13 -1063 1064 0
50 -1034 0
52 -1034 0
-50 -52 1034 0
-51 -52 -1029 0
51 52 -1029 0
-52 52 -1029 0
-51 52 1029 0
51 -52 1029 0
52 -52 1029 0
-1034 -1029 -1035 0
1034 1029 -1035 0
-1029 1029 -1035 0
-1034 1029 1035 0
1034 -1029 1035 0
1029 -1029 1035 0
1035 -1054 0
54 -1045 0
56 -1045 0
-54 -56 1045 0
-55 -56 -1042 0
55 56 -1042 0
-56 56 -1042 0
-55 56 1042 0
55 -56 1042 0
56 -56 1042 0
-1045 -1042 -1046 0
1045 1042 -1046 0
-1042 1042 -1046 0
-1045 1042 1046 0
1045 -1042 1046 0
1042 -1042 1046 0
1046 -1054 0
-1035 -1046 1054 0
-1054 1056 0
-50 -52 -1033 0
50 52 -1033 0
-52 52 -1033 0
-50 52 1033 0
50 -52 1033 0
52 -52 1033 0
1033 -1051 0
-54 -56 -1044 0
54 56 -1044 0
-56 56 -1044 0
-54 56 1044 0
54 -56 1044 0
56 -56 1044 0
1044 -1051 0
-1033 -1044 1051 0
1051 -1055 0
-1035 -1046 -1052 0
1035 1046 -1052 0
-1046 1046 -1052 0
-1035 1046 1052 0
1035 -1046 1052 0
1046 -1046 1052 0
1052 -1055 0
-1051 -1052 1055 0
-1055 1056 0
1054 1055 -1056 0
1029 -1036 0
1034 -1036 0
-1029 -1034 1036 0
-49 -50 -1027 0
49 50 -1027 0
-50 50 -1027 0
-49 50 1027 0
49 -50 1027 0
50 -50 1027 0
51 -1030 0
52 -1030 0
-51 -52 1030 0
-1030 -1029 -1031 0
1030 1029 -1031 0
-1029 1029 -1031 0
-1030 1029 1031 0
1030 -1029 1031 0
1029 -1029 1031 0
-1027 -1031 -1037 0
1027 1031 -1037 0
-1031 1031 -1037 0
-1027 1031 1037 0
1027 -1031 1037 0
1031 -1031 1037 0
-1036 -1037 -1038 0
1036 1037 -1038 0
-1037 1037 -1038 0
-1036 1037 1038 0
1036 -1037 1038 0
1037 -1037 1038 0
1042 -1047 0
1045 -1047 0
-1042 -1045 1047 0
55 -1043 0
56 -1043 0
-55 -56 1043 0
-1047 -1043 -1048 0
1047 1043 -1048 0
-1043 1043 -1048 0
-1047 1043 1048 0
1047 -1043 1048 0
1043 -1043 1048 0
-1038 -1048 -1057 0
1038 1048 -1057 0
-1048 1048 -1057 0
-1038 1048 1057 0
1038 -1048 1057 0
1048 -1048 1057 0
-1056 -1057 -1058 0
1056 1057 -1058 0
-1057 1057 -1058 0
-1056 1057 1058 0
1056 -1057 1058 0
1057 -1057 1058 0
-1033 -1044 -1050 0
1033 1044 -1050 0
-1044 1044 -1050 0
-1033 1044 1050 0
1033 -1044 1050 0
1044 -1044 1050 0
-1050 1073 0
-1051 -1052 -1053 0
1051 1052 -1053 0
-1052 1052 -1053 0
-1051 1052 1053 0
1051 -1052 1053 0
1052 -1052 1053 0
-1053 1073 0
-1058 1073 0
1058 -1073 1074 0
1064 -1074 1075 0
-1075 -1076 0
-512 -1071 0
569 -613 0
608 -612 0
524 -611 0
588 -611 0
611 -612 0
612 -613 0
613 -615 0
543 -614 0
556 -614 0
614 -615 0
26 -623 0
28 -623 0
-26 -28 623 0
-27 -28 -618 0
27 28 -618 0
-28 28 -618 0
-27 28 618 0
27 -28 618 0
28 -28 618 0
-623 -618 -624 0
623 618 -624 0
-618 618 -624 0
-623 618 624 0
623 -618 624 0
618 -618 624 0
624 -643 0
30 -634 0
32 -634 0
-30 -32 634 0
-31 -32 -631 0
31 32 -631 0
-32 32 -631 0
-31 32 631 0
31 -32 631 0
32 -32 631 0
-634 -631 -635 0
634 631 -635 0
-631 631 -635 0
-634 631 635 0
634 -631 635 0
631 -631 635 0
635 -643 0
-624 -635 643 0
-643 645 0
-26 -28 -622 0
26 28 -622 0
-28 28 -622 0
-26 28 622 0
26 -28 622 0
28 -28 622 0
622 -640 0
-30 -32 -633 0
30 32 -633 0
-32 32 -633 0
-30 32 633 0
30 -32 633 0
32 -32 633 0
633 -640 0
-622 -633 640 0
640 -644 0
-624 -635 -641 0
624 635 -641 0
-635 635 -641 0
-624 635 641 0
624 -635 641 0
635 -635 641 0
641 -644 0
-640 -641 644 0
-644 645 0
643 644 -645 0
618 -625 0
623 -625 0
-618 -623 625 0
-25 -26 -616 0
25 26 -616 0
-26 26 -616 0
-25 26 616 0
25 -26 616 0
26 -26 616 0
27 -619 0
28 -619 0
-27 -28 619 0
-619 -618 -620 0
619 618 -620 0
-618 618 -620 0
-619 618 620 0
619 -618 620 0
618 -618 620 0
-616 -620 -626 0
616 620 -626 0
-620 620 -626 0
-616 620 626 0
616 -620 626 0
620 -620 626 0
-625 -626 -627 0
625 626 -627 0
-626 626 -627 0
-625 626 627 0
625 -626 627 0
626 -626 627 0
631 -636 0
634 -636 0
-631 -634 636 0
31 -632 0
32 -632 0
-31 -32 632 0
-636 -632 -637 0
636 632 -637 0
-632 632 -637 0
-636 632 637 0
636 -632 637 0
632 -632 637 0
-627 -637 -646 0
627 637 -646 0
-637 637 -646 0
-627 637 646 0
627 -637 646 0
637 -637 646 0
-645 -646 -647 0
645 646 -647 0
-646 646 -647 0
-645 646 647 0
645 -646 647 0
646 -646 647 0
-647 -654 0
-622 -633 -639 0
622 633 -639 0
-633 633 -639 0
-622 633 639 0
622 -633 639 0
633 -633 639 0
-640 -641 -642 0
640 641 -642 0
-641 641 -642 0
-640 641 642 0
640 -641 642 0
641 -641 642 0
639 642 647 -653 0
653 -654 0
654 -991 0
4 3 2 655 0
-1 -655 656 0
-656 -684 0
2 -657 0
70 -657 0
-2 -70 657 0
-657 669 0
3 -661 0
74 -661 0
-3 -74 661 0
-661 669 0
4 -665 0
78 -665 0
-4 -78 665 0
-665 669 0
657 661 665 -669 0
-5 669 -673 0
673 -677 0
2 -658 0
71 -658 0
-2 -71 658 0
-658 670 0
3 -662 0
75 -662 0
-3 -75 662 0
-662 670 0
4 -666 0
79 -666 0
-4 -79 666 0
-666 670 0
658 662 666 -670 0
-6 670 -674 0
674 -677 0
2 -659 0
72 -659 0
-2 -72 659 0
-659 671 0
3 -663 0
76 -663 0
-3 -76 663 0
-663 671 0
4 -667 0
80 -667 0
-4 -80 667 0
-667 671 0
659 663 667 -671 0
-7 671 -675 0
675 -677 0
2 -660 0
73 -660 0
-2 -73 660 0
-660 672 0
3 -664 0
77 -664 0
-3 -77 664 0
-664 672 0
4 -668 0
81 -668 0
-4 -81 668 0
-668 672 0
660 664 668 -672 0
-8 672 -676 0
676 -677 0
677 -683 0
-669 5 -678 0
678 -682 0
-670 6 -679 0
679 -682 0
-671 7 -680 0
680 -682 0
-672 8 -681 0
681 -682 0
682 -683 0
683 -684 0
684 -990 0
-5 13 -685 0
685 -689 0
-6 14 -686 0
686 -689 0
-7 15 -687 0
687 -689 0
-8 16 -688 0
688 -689 0
689 -695 0
-13 5 -690 0
690 -694 0
-14 6 -691 0
691 -694 0
-15 7 -692 0
692 -694 0
-16 8 -693 0
693 -694 0
694 -695 0
695 -727 0
-5 9 -696 0
696 -700 0
-6 10 -697 0
697 -700 0
-7 11 -698 0
698 -700 0
-8 12 -699 0
699 -700 0
700 -706 0
-9 5 -701 0
701 -705 0
-10 6 -702 0
702 -705 0
-11 7 -703 0
703 -705 0
-12 8 -704 0
704 -705 0
705 -706 0
706 -726 0
-33 41 -707 0
707 -715 0
-34 42 -708 0
708 -715 0
-35 43 -709 0
709 -715 0
-36 44 -710 0
710 -715 0
-37 45 -711 0
711 -715 0
-38 46 -712 0
712 -715 0
-39 47 -713 0
713 -715 0
-40 48 -714 0
714 -715 0
715 -725 0
-41 33 -716 0
716 -724 0
-42 34 -717 0
717 -724 0
-43 35 -718 0
718 -724 0
-44 36 -719 0
719 -724 0
-45 37 -720 0
720 -724 0
-46 38 -721 0
721 -724 0
-47 39 -722 0
722 -724 0
-48 40 -723 0
723 -724 0
724 -725 0
725 -726 0
726 -727 0
727 -747 0
-33 49 -728 0
728 -736 0
-34 50 -729 0
729 -736 0
-35 51 -730 0
730 -736 0
-36 52 -731 0
731 -736 0
-37 53 -732 0
732 -736 0
-38 54 -733 0
733 -736 0
-39 55 -734 0
734 -736 0
-40 56 -735 0
735 -736 0
736 -746 0
-49 33 -737 0
737 -745 0
-50 34 -738 0
738 -745 0
-51 35 -739 0
739 -745 0
-52 36 -740 0
740 -745 0
-53 37 -741 0
741 -745 0
-54 38 -742 0
742 -745 0
-55 39 -743 0
743 -745 0
-56 40 -744 0
744 -745 0
745 -746 0
746 -747 0
34 -755 0
36 -755 0
-34 -36 755 0
-35 -36 -750 0
35 36 -750 0
-36 36 -750 0
-35 36 750 0
35 -36 750 0
36 -36 750 0
-755 -750 -756 0
755 750 -756 0
-750 750 -756 0
-755 750 756 0
755 -750 756 0
750 -750 756 0
756 -775 0
38 -766 0
40 -766 0
-38 -40 766 0
-39 -40 -763 0
39 40 -763 0
-40 40 -763 0
-39 40 763 0
39 -40 763 0
40 -40 763 0
-766 -763 -767 0
766 763 -767 0
-763 763 -767 0
-766 763 767 0
766 -763 767 0
763 -763 767 0
767 -775 0
-756 -767 775 0
-775 777 0
-34 -36 -754 0
34 36 -754 0
-36 36 -754 0
-34 36 754 0
34 -36 754 0
36 -36 754 0
754 -772 0
-38 -40 -765 0
38 40 -765 0
-40 40 -765 0
-38 40 765 0
38 -40 765 0
40 -40 765 0
765 -772 0
-754 -765 772 0
772 -776 0
-756 -767 -773 0
756 767 -773 0
-767 767 -773 0
-756 767 773 0
756 -767 773 0
767 -767 773 0
773 -776 0
-772 -773 776 0
-776 777 0
775 776 -777 0
750 -757 0
755 -757 0
-750 -755 757 0
-33 -34 -748 0
33 34 -748 0
-34 34 -748 0
-33 34 748 0
33 -34 748 0
34 -34 748 0
35 -751 0
36 -751 0
-35 -36 751 0
-751 -750 -752 0
751 750 -752 0
-750 750 -752 0
-751 750 752 0
751 -750 752 0
750 -750 752 0
-748 -752 -758 0
748 752 -758 0
-752 752 -758 0
-748 752 758 0
748 -752 758 0
752 -752 758 0
-757 -758 -759 0
757 758 -759 0
-758 758 -759 0
-757 758 759 0
757 -758 759 0
758 -758 759 0
763 -768 0
766 -768 0
-763 -766 768 0
39 -764 0
40 -764 0
-39 -40 764 0
-768 -764 -769 0
768 764 -769 0
-764 764 -769 0
-768 764 769 0
768 -764 769 0
764 -764 769 0
-759 -769 -778 0
759 769 -778 0
-769 769 -778 0
-759 769 778 0
759 -769 778 0
769 -769 778 0
-777 -778 -779 0
777 778 -779 0
-778 778 -779 0
-777 778 779 0
777 -778 779 0
778 -778 779 0
-779 -786 0
-754 -765 -771 0
754 765 -771 0
-765 765 -771 0
-754 765 771 0
754 -765 771 0
765 -765 771 0
-772 -773 -774 0
772 773 -774 0
-773 773 -774 0
-772 773 774 0
772 -773 774 0
773 -773 774 0
771 774 779 -785 0
785 -786 0
786 -954 0
8 7 6 787 0
-5 -787 788 0
-788 -816 0
6 -789 0
70 -789 0
-6 -70 789 0
-789 801 0
7 -793 0
74 -793 0
-7 -74 793 0
-793 801 0
8 -797 0
78 -797 0
-8 -78 797 0
-797 801 0
789 793 797 -801 0
-9 801 -805 0
805 -809 0
6 -790 0
71 -790 0
-6 -71 790 0
-790 802 0
7 -794 0
75 -794 0
-7 -75 794 0
-794 802 0
8 -798 0
79 -798 0
-8 -79 798 0
-798 802 0
790 794 798 -802 0
-10 802 -806 0
806 -809 0
6 -791 0
72 -791 0
-6 -72 791 0
-791 803 0
7 -795 0
76 -795 0
-7 -76 795 0
-795 803 0
8 -799 0
80 -799 0
-8 -80 799 0
-799 803 0
791 795 799 -803 0
-11 803 -807 0
807 -809 0
6 -792 0
73 -792 0
-6 -73 792 0
-792 804 0
7 -796 0
77 -796 0
-7 -77 796 0
-796 804 0
8 -800 0
81 -800 0
-8 -81 800 0
-800 804 0
792 796 800 -804 0
-12 804 -808 0
808 -809 0
809 -815 0
-801 9 -810 0
810 -814 0
-802 10 -811 0
811 -814 0
-803 11 -812 0
812 -814 0
-804 12 -813 0
813 -814 0
814 -815 0
815 -816 0
816 -953 0
-9 13 -817 0
817 -821 0
-10 14 -818 0
818 -821 0
-11 15 -819 0
819 -821 0
-12 16 -820 0
820 -821 0
821 -827 0
-13 9 -822 0
822 -826 0
-14 10 -823 0
823 -826 0
-15 11 -824 0
824 -826 0
-16 12 -825 0
825 -826 0
826 -827 0
827 -847 0
-41 49 -828 0
828 -836 0
-42 50 -829 0
829 -836 0
-43 51 -830 0
830 -836 0
-44 52 -831 0
831 -836 0
-45 53 -832 0
832 -836 0
-46 54 -833 0
833 -836 0
-47 55 -834 0
834 -836 0
-48 56 -835 0
835 -836 0
836 -846 0
-49 41 -837 0
837 -845 0
-50 42 -838 0
838 -845 0
-51 43 -839 0
839 -845 0
-52 44 -840 0
840 -845 0
-53 45 -841 0
841 -845 0
-54 46 -842 0
842 -845 0
-55 47 -843 0
843 -845 0
-56 48 -844 0
844 -845 0
845 -846 0
846 -847 0
42 -855 0
44 -855 0
-42 -44 855 0
-43 -44 -850 0
43 44 -850 0
-44 44 -850 0
-43 44 850 0
43 -44 850 0
44 -44 850 0
-855 -850 -856 0
855 850 -856 0
-850 850 -856 0
-855 850 856 0
855 -850 856 0
850 -850 856 0
856 -875 0
46 -866 0
48 -866 0
-46 -48 866 0
-47 -48 -863 0
47 48 -863 0
-48 48 -863 0
-47 48 863 0
47 -48 863 0
48 -48 863 0
-866 -863 -867 0
866 863 -867 0
-863 863 -867 0
-866 863 867 0
866 -863 867 0
863 -863 867 0
867 -875 0
-856 -867 875 0
-875 877 0
-42 -44 -854 0
42 44 -854 0
-44 44 -854 0
-42 44 854 0
42 -44 854 0
44 -44 854 0
854 -872 0
-46 -48 -865 0
46 48 -865 0
-48 48 -865 0
-46 48 865 0
46 -48 865 0
48 -48 865 0
865 -872 0
-854 -865 872 0
872 -876 0
-856 -867 -873 0
856 867 -873 0
-867 867 -873 0
-856 867 873 0
856 -867 873 0
867 -867 873 0
873 -876 0
-872 -873 876 0
-876 877 0
875 876 -877 0
850 -857 0
855 -857 0
-850 -855 857 0
-41 -42 -848 0
41 42 -848 0
-42 42 -848 0
-41 42 848 0
41 -42 848 0
42 -42 848 0
43 -851 0
44 -851 0
-43 -44 851 0
-851 -850 -852 0
851 850 -852 0
-850 850 -852 0
-851 850 852 0
851 -850 852 0
850 -850 852 0
-848 -852 -858 0
848 852 -858 0
-852 852 -858 0
-848 852 858 0
848 -852 858 0
852 -852 858 0
-857 -858 -859 0
857 858 -859 0
-858 858 -859 0
-857 858 859 0
857 -858 859 0
858 -858 859 0
863 -868 0
866 -868 0
-863 -866 868 0
47 -864 0
48 -864 0
-47 -48 864 0
-868 -864 -869 0
868 864 -869 0
-864 864 -869 0
-868 864 869 0
868 -864 869 0
864 -864 869 0
-859 -869 -878 0
859 869 -878 0
-869 869 -878 0
-859 869 878 0
859 -869 878 0
869 -869 878 0
-877 -878 -879 0
877 878 -879 0
-878 878 -879 0
-877 878 879 0
877 -878 879 0
878 -878 879 0
-879 -886 0
-854 -865 -871 0
854 865 -871 0
-865 865 -871 0
-854 865 871 0
854 -865 871 0
865 -865 871 0
-872 -873 -874 0
872 873 -874 0
-873 873 -874 0
-872 873 874 0
872 -873 874 0
873 -873 874 0
871 874 879 -885 0
885 -886 0
886 -917 0
12 11 10 887 0
-9 -887 888 0
-888 -916 0
10 -889 0
70 -889 0
-10 -70 889 0
-889 901 0
11 -893 0
74 -893 0
-11 -74 893 0
-893 901 0
12 -897 0
78 -897 0
-12 -78 897 0
-897 901 0
889 893 897 -901 0
-13 901 -905 0
905 -909 0
10 -890 0
71 -890 0
-10 -71 890 0
-890 902 0
11 -894 0
75 -894 0
-11 -75 894 0
-894 902 0
12 -898 0
79 -898 0
-12 -79 898 0
-898 902 0
890 894 898 -902 0
-14 902 -906 0
906 -909 0
10 -891 0
72 -891 0
-10 -72 891 0
-891 903 0
11 -895 0
76 -895 0
-11 -76 895 0
-895 903 0
12 -899 0
80 -899 0
-12 -80 899 0
-899 903 0
891 895 899 -903 0
-15 903 -907 0
907 -909 0
10 -892 0
73 -892 0
-10 -73 892 0
-892 904 0
11 -896 0
77 -896 0
-11 -77 896 0
-896 904 0
12 -900 0
81 -900 0
-12 -81 900 0
-900 904 0
892 896 900 -904 0
-16 904 -908 0
908 -909 0
909 -915 0
-901 13 -910 0
910 -914 0
-902 14 -911 0
911 -914 0
-903 15 -912 0
912 -914 0
-904 16 -913 0
913 -914 0
914 -915 0
915 -916 0
916 -917 0
917 -951 0
-871 874 -918 0
871 -874 -918 0
874 -874 -918 0
-871 -874 918 0
871 874 918 0
-874 874 918 0
-918 -924 0
871 -924 0
-874 920 0
-874 -919 0
871 -919 0
874 -871 919 0
-919 920 0
874 919 -920 0
-920 879 -921 0
920 -879 -921 0
879 -879 -921 0
-920 -879 921 0
920 879 921 0
-879 879 921 0
921 -924 0
918 -871 -921 924 0
-49 924 -932 0
932 -940 0
-918 -925 0
-871 -925 0
921 -925 0
918 871 -921 925 0
-50 925 -933 0
933 -940 0
871 -926 0
918 -926 0
921 -926 0
-871 -918 -921 926 0
-51 926 -934 0
934 -940 0
-871 -927 0
918 -927 0
921 -927 0
871 -918 -921 927 0
-52 927 -935 0
935 -940 0
-921 -928 0
-918 -928 0
871 -928 0
921 918 -871 928 0
-53 928 -936 0
936 -940 0
-921 -929 0
-918 -929 0
-871 -929 0
921 918 871 929 0
-54 929 -937 0
937 -940 0
-921 -930 0
871 -930 0
918 -930 0
921 -871 -918 930 0
-55 930 -938 0
938 -940 0
-921 -931 0
-871 -931 0
918 -931 0
921 871 -918 931 0
-56 931 -939 0
939 -940 0
940 -950 0
-924 49 -941 0
941 -949 0
-925 50 -942 0
942 -949 0
-926 51 -943 0
943 -949 0
-927 52 -944 0
944 -949 0
-928 53 -945 0
945 -949 0
-929 54 -946 0
946 -949 0
-930 55 -947 0
947 -949 0
-931 56 -948 0
948 -949 0
949 -950 0
950 -951 0
847 951 -952 0
952 -953 0
953 -954 0
954 -988 0
-771 774 -955 0
771 -774 -955 0
774 -774 -955 0
-771 -774 955 0
771 774 955 0
-774 774 955 0
-955 -961 0
771 -961 0
-774 957 0
-774 -956 0
771 -956 0
774 -771 956 0
-956 957 0
774 956 -957 0
-957 779 -958 0
957 -779 -958 0
779 -779 -958 0
-957 -779 958 0
957 779 958 0
-779 779 958 0
958 -961 0
955 -771 -958 961 0
-41 961 -969 0
969 -977 0
-955 -962 0
-771 -962 0
958 -962 0
955 771 -958 962 0
-42 962 -970 0
970 -977 0
771 -963 0
955 -963 0
958 -963 0
-771 -955 -958 963 0
-43 963 -971 0
971 -977 0
-771 -964 0
955 -964 0
958 -964 0
771 -955 -958 964 0
-44 964 -972 0
972 -977 0
-958 -965 0
-955 -965 0
771 -965 0
958 955 -771 965 0
-45 965 -973 0
973 -977 0
-958 -966 0
-955 -966 0
-771 -966 0
958 955 771 966 0
-46 966 -974 0
974 -977 0
-958 -967 0
771 -967 0
955 -967 0
958 -771 -955 967 0
-47 967 -975 0
975 -977 0
-958 -968 0
-771 -968 0
955 -968 0
958 771 -955 968 0
-48 968 -976 0
976 -977 0
977 -987 0
-961 41 -978 0
978 -986 0
-962 42 -979 0
979 -986 0
-963 43 -980 0
980 -986 0
-964 44 -981 0
981 -986 0
-965 45 -982 0
982 -986 0
-966 46 -983 0
983 -986 0
-967 47 -984 0
984 -986 0
-968 48 -985 0
985 -986 0
986 -987 0
987 -988 0
747 988 -989 0
989 -990 0
990 -991 0
991 -1025 0
-639 642 -992 0
639 -642 -992 0
642 -642 -992 0
-639 -642 992 0
639 642 992 0
-642 642 992 0
-992 -998 0
639 -998 0
-642 994 0
-642 -993 0
639 -993 0
642 -639 993 0
-993 994 0
642 993 -994 0
-994 647 -995 0
994 -647 -995 0
647 -647 -995 0
-994 -647 995 0
994 647 995 0
-647 647 995 0
995 -998 0
992 -639 -995 998 0
-33 998 -1006 0
1006 -1014 0
-992 -999 0
-639 -999 0
995 -999 0
992 639 -995 999 0
-34 999 -1007 0
1007 -1014 0
639 -1000 0
992 -1000 0
995 -1000 0
-639 -992 -995 1000 0
-35 1000 -1008 0
1008 -1014 0
-639 -1001 0
992 -1001 0
995 -1001 0
639 -992 -995 1001 0
-36 1001 -1009 0
1009 -1014 0
-995 -1002 0
-992 -1002 0
639 -1002 0
995 992 -639 1002 0
-37 1002 -1010 0
1010 -1014 0
-995 -1003 0
-992 -1003 0
-639 -1003 0
995 992 639 1003 0
-38 1003 -1011 0
1011 -1014 0
-995 -1004 0
639 -1004 0
992 -1004 0
995 -639 -992 1004 0
-39 1004 -1012 0
1012 -1014 0
-995 -1005 0
-639 -1005 0
992 -1005 0
995 639 -992 1005 0
-40 1005 -1013 0
1013 -1014 0
1014 -1024 0
-998 33 -1015 0
1015 -1023 0
-999 34 -1016 0
1016 -1023 0
-1000 35 -1017 0
1017 -1023 0
-1001 36 -1018 0
1018 -1023 0
-1002 37 -1019 0
1019 -1023 0
-1003 38 -1020 0
1020 -1023 0
-1004 39 -1021 0
1021 -1023 0
-1005 40 -1022 0
1022 -1023 0
1023 -1024 0
1024 -1025 0
615 1025 -1026 0
1026 -1070 0
-1058 -1062 0
-1053 -1062 0
-1050 -1062 0
1058 1053 1050 1062 0
1062 -1065 0
1064 -1065 0
-1062 -1064 1065 0
1065 -1067 0
-85 -1066 0
84 -1066 0
1066 -1067 0
-1065 -1068 0
513 -1068 0
1067 1068 -1069 0
1069 -1070 0
1070 -1071 0
1071 -1076 0
610 1076 -1077 0
1077 -1078 0
1078 -1079 0
1079 -1081 0
-82 -1080 0
83 -1080 0
1080 -1081 0
1081 -1082 0
1082 -1083 0
1083 -1084 0
1084 -1085 0
92 0
99 0
106 0
113 0
128 0
143 0
158 0
173 0
188 0
224 0
1085 0
